
Gurobi 9.5.2 (win64) logging started Mon Mar 27 20:25:57 2023

Set parameter LogFile to value "2023-03-27_20hr-25min-09sec/Nodes10_Arcs35_LocNodes8/Formulation-2Instance-3.log"
Set parameter TimeLimit to value 600
Set parameter IntFeasTol to value 1e-09
Set parameter DualReductions to value 0
Set parameter NonConvex to value 2
Gurobi Optimizer version 9.5.2 build v9.5.2rc0 (win64)
Thread count: 4 physical cores, 8 logical processors, using up to 8 threads
Optimize a model with 64 rows, 116 columns and 282 nonzeros
Model fingerprint: 0x53b1a91c
Model has 45 quadratic objective terms
Model has 45 SOS constraints
Variable types: 108 continuous, 8 integer (8 binary)
Coefficient statistics:
  Matrix range     [3e-02, 2e+02]
  Objective range  [6e-02, 1e+03]
  QObjective range [5e-02, 7e+00]
  Bounds range     [1e+00, 1e+00]
  RHS range        [6e-02, 1e+03]
Presolve time: 0.00s
Presolved: 64 rows, 116 columns, 282 nonzeros
Presolved model has 45 SOS constraint(s)
Presolved model has 45 quadratic objective terms
Variable types: 108 continuous, 8 integer (8 binary)

Root relaxation: objective 8.884180e+04, 169 iterations, 0.00 seconds (0.00 work units)

    Nodes    |    Current Node    |     Objective Bounds      |     Work
 Expl Unexpl |  Obj  Depth IntInf | Incumbent    BestBd   Gap | It/Node Time

     0     0 88841.7956    0    8          - 88841.7956      -     -    0s
H    0     0                    85114.816242 88841.7956  4.38%     -    0s
H    0     0                    88322.016467 88821.8116  0.57%     -    0s
H    0     0                    88376.944101 88821.8116  0.50%     -    0s

Cutting planes:
  Flow cover: 1

Explored 1 nodes (169 simplex iterations) in 0.08 seconds (0.02 work units)
Thread count was 8 (of 8 available processors)

Solution count 3: 88376.9 88322 85114.8 

Optimal solution found (tolerance 1.00e-04)
Best objective 8.837694410087e+04, best bound 8.837745766935e+04, gap 0.0006%

User-callback calls 168, time in user-callback 0.00 sec
